%chk=g09.chk
%mem=2048mb
%nproc=2
#p b3lyp/gen qm3_job qm3_guess charge prop=(field,read) scf=direct nosymm fchk

.

0 1
qm3_atoms

qm3_charges

H     0 
S   3   1.00
     13.0107010              0.19682158E-01   
      1.9622572              0.13796524       
      0.44453796             0.47831935       
S   1   1.00
      0.12194962             1.0000000        
P   1   1.00
      0.8000000              1.0000000        
****
O     0 
S   5   1.00
   2266.1767785             -0.53431809926E-02      
    340.87010191            -0.39890039230E-01      
     77.363135167           -0.17853911985    
     21.479644940           -0.46427684959    
      6.6589433124          -0.44309745172    
S   1   1.00
      0.80975975668          1.0000000        
S   1   1.00
      0.25530772234          1.0000000        
P   3   1.00
     17.721504317            0.43394573193E-01      
      3.8635505440           0.23094120765    
      1.0480920883           0.51375311064    
P   1   1.00
      0.27641544411          1.0000000        
D   1   1.00
      1.2000000              1.0000000        
****

qm3_field
