%%chk=g09.chk
%%mem=2048mb
%%nproc=2
#p b3lyp/gen %s charge prop=(field,read) scf=direct nosymm fchk

.

0 1
